% demand
num_movements = 47;
loading_factor = [1250, 850, 2000, 1600, 1600, 1250, 1950, 1300, 1300, 1400, 1550, 1050, 1700, 1900, 950, 1600, 1250, 900, 1850, 1850, 1200, 1400, 1550, 1900, 1150, 1300, 1550, 2000, 1400, 1250, 1200, 1600, 1300, 1200, 1150, 1800, 1600, 1000, 1250, 1150, 1900, 1400, 1700, 1000, 1100, 1350, 1500];
pickup_time = [0, 0, 0, 0, 0, 0, 0, 1, 2, 3, 3, 3, 3, 4, 4, 4, 4, 5, 5, 6, 6, 6, 6, 6, 6, 6, 7, 7, 7, 7, 7, 7, 7, 9, 9, 9, 9, 9, 9, 9, 10, 10, 11, 11, 12, 12, 12];
delivery_time = [4, 3, 5, 4, 2, 1, 3, 3, 3, 4, 4, 5, 5, 5, 5, 5, 5, 6, 6, 7, 7, 7, 7, 7, 7, 7, 8, 9, 14, 8, 9, 9, 8, 10, 10, 11, 12, 10, 10, 12, 11, 13, 14, 14, 14, 14, 14];

% transporter definition
total_capacity = 11000;
num_decks = 4;
capacity = [3000, 3000, 1000, 4000];

% ways out of decks
num_ways_out = 2;
paths_out = array3d(decks, ways_out, decks, [
% ways out of deck d1
2, 4, 0, 0, 3, 4, 0, 0, 

% ways out of deck d2
4, 0, 0, 0, 0, 0, 0, 0,	

% ways out of deck d3
4, 0, 0, 0, 0, 0, 0, 0,	

% ways out of deck d4
0, 0, 0, 0,	0, 0, 0, 0,	

]);

